solving instance mcnd arcs c52 3 6 sinabc1
presolving:
(round 1, fast)       30 del vars, 30 del conss, 0 add conss, 517 chg bounds, 0 chg sides, 0 chg coeffs, 0 upgd conss, 0 impls, 0 clqs
(round 2, exhaustive) 60 del vars, 30 del conss, 0 add conss, 517 chg bounds, 0 chg sides, 0 chg coeffs, 52217 upgd conss, 0 impls, 0 clqs
   (1.1s) probing: 51/517 (9.9%) - 0 fixings, 0 aggregations, 0 implications, 0 bound changes
   (1.1s) probing aborted: 50/50 successive totally useless probings
   (1.1s) symmetry computation started: requiring (bin +, int +, cont +), (fixed: bin -, int -, cont -)
   (1.4s) no symmetry present (symcode time: 0.13)
presolving (3 rounds: 3 fast, 2 medium, 2 exhaustive):
 60 deleted vars, 30 deleted constraints, 0 added constraints, 517 tightened bounds, 0 added holes, 0 changed sides, 0 changed coefficients
 52217 implications, 0 cliques
presolved problem has 53251 variables (517 bin, 0 int, 0 impl, 52734 cont) and 56798 constraints
  52217 constraints of type <varbound>
   4064 constraints of type <linear>
    517 constraints of type <nonlinear>
Presolving Time: 1.21

 time | node  | left  |LP iter|LP it/n|mem/heur|mdpt |vars |cons |rows |cuts |sepa|confs|strbr|  dualbound   | primalbound  |  gap   | compl. 
t 872s|     1 |     0 |175722 |     - |  trysol|   0 |  54k|  56k|  59k|   0 |  0 |   0 |   0 |-9.860992e-04 | 4.473798e+05 |    Inf | unknown
 2498s|     1 |     0 |333520 |     - |   439M |   0 |  54k|  56k|  59k|   0 |  0 |   0 |   0 | 5.524013e+04 | 4.473798e+05 | 709.88%| unknown
t2782s|     1 |     0 |370148 |     - |  trysol|   0 |  54k|  56k|  59k|   0 |  0 |   0 |   0 | 5.524013e+04 | 3.573892e+05 | 546.97%| unknown
 2992s|     1 |     0 |392850 |     - |   464M |   0 |  54k|  56k|  59k| 397 |  1 |   0 |   0 | 7.292837e+04 | 3.573892e+05 | 390.06%| unknown
t3014s|     1 |     0 |392850 |     - |  trysol|   0 |  54k|  56k|  59k| 397 |  1 |   0 |   0 | 7.292837e+04 | 2.305921e+05 | 216.19%| unknown
 3014s|     1 |     0 |392850 |     - |   466M |   0 |  54k|  56k|  59k| 397 |  1 |   0 |   0 | 7.292837e+04 | 2.305921e+05 | 216.19%| unknown
 3014s|     1 |     0 |392850 |     - |   466M |   0 |  54k|  56k|  59k| 397 |  1 |   0 |   0 | 7.292837e+04 | 2.305921e+05 | 216.19%| unknown
 3213s|     1 |     0 |413447 |     - |   472M |   0 |  54k|  56k|  59k| 605 |  2 |   0 |   0 | 8.055577e+04 | 2.305921e+05 | 186.25%| unknown
 3370s|     1 |     0 |431867 |     - |   481M |   0 |  54k|  56k|  60k| 783 |  3 |   0 |   0 | 8.414679e+04 | 2.305921e+05 | 174.04%| unknown
r3415s|     1 |     0 |431867 |     - |simplero|   0 |  54k|  56k|  60k| 783 |  3 |   0 |   0 | 8.414679e+04 | 2.061782e+05 | 145.02%| unknown
 3564s|     1 |     0 |446069 |     - |   491M |   0 |  54k|  56k|  60k| 915 |  4 |   0 |   0 | 8.575206e+04 | 2.061782e+05 | 140.44%| unknown
t3585s|     1 |     0 |446069 |     - |  trysol|   0 |  54k|  56k|  60k| 915 |  4 |   0 |   0 | 8.575206e+04 | 1.933568e+05 | 125.48%| unknown
 3585s|     1 |     0 |446069 |     - |   492M |   0 |  54k|  56k|  60k| 915 |  4 |   0 |   0 | 8.575206e+04 | 1.933568e+05 | 125.48%| unknown
 3585s|     1 |     0 |446069 |     - |   492M |   0 |  54k|  56k|  60k| 915 |  4 |   0 |   0 | 8.575206e+04 | 1.933568e+05 | 125.48%| unknown
 3600s|     1 |     0 |448120 |     - |   498M |   0 |  54k|  56k|  60k| 992 |  5 |   0 |   0 | 8.575206e+04 | 1.933568e+05 | 125.48%| unknown
(node 1) LP solver hit time limit in LP 9 -- using pseudo solution instead

SCIP Status        : solving was interrupted [time limit reached]
Solving Time (sec) : 3600.00
Solving Nodes      : 1
Primal Bound       : +1.93356825271404e+05 (5 solutions)
Dual Bound         : +8.57520624847031e+04
Gap                : 125.48 %
primal_bound = 193356.82527140412, dual_bound = 85752.06248470314, gap = 55.65087378511837, time = 3602.89
